DIMENSION: 30
EDGE_WEIGHT_TYPE: EXPLICIT
EDGE_WEIGHT_FORMAT: FULL_MATRIX
EDGE_WEIGHT_SECTION:
32767 32767 37 71 50 32767 32767 32767 68 32767 32767 32767 5 32767 99 32767 32767 63 74 32767 34 83 53 32767 23 32767 32767 32767 32767 32767 
32767 32767 21 32767 83 32767 32767 32767 90 32767 32767 77 91 32767 77 32767 32767 96 4 32767 32767 8 32767 32767 32767 56 32767 32767 40 32767 
37 21 32767 32767 29 99 32767 90 48 32767 46 32767 66 75 32767 32767 32767 32767 32767 32767 32767 32767 33 31 32767 32767 32767 35 32767 32767 
71 32767 32767 32767 52 66 32767 63 32767 29 80 32767 32767 32767 82 3 98 32767 32767 33 92 32767 54 32767 5 32767 73 32767 32767 90 
50 83 29 52 32767 32767 32767 32767 32767 32767 32767 32767 91 32767 32767 17 32767 49 12 32767 66 32 35 32767 32767 44 12 93 32767 32767 
32767 32767 99 66 32767 32767 68 32767 32767 43 32767 60 32767 32767 32767 32767 32767 32767 51 72 32767 32767 18 32767 32767 32767 85 71 32767 32767 
32767 32767 32767 32767 32767 68 32767 32767 82 32767 32767 32767 30 32767 32767 32767 32767 60 32767 32767 32767 77 87 32767 86 51 96 32767 92 62 
32767 32767 90 63 32767 32767 32767 32767 10 51 62 32767 32767 32767 31 32767 32767 32767 32767 32767 80 7 68 44 32767 32767 23 32767 32767 69 
68 90 48 32767 32767 32767 82 10 32767 32767 19 30 32767 33 3 16 39 51 94 64 32767 32767 51 75 64 61 40 32767 32767 59 
32767 32767 32767 29 32767 43 32767 51 32767 32767 32767 43 32767 32767 32767 32767 32767 79 32767 24 11 72 32767 32767 32767 64 32767 24 88 32767 
32767 32767 46 80 32767 32767 32767 62 19 32767 32767 32767 32767 32767 28 41 44 32767 32767 32767 32767 32767 14 32767 32767 32767 53 54 32767 56 
32767 77 32767 32767 32767 60 32767 32767 30 43 32767 32767 75 36 32767 32767 32767 32767 87 32767 32767 32767 32767 32767 32767 6 32767 19 32767 68 
5 91 66 32767 91 32767 30 32767 32767 32767 32767 75 32767 32767 32767 4 32767 12 32767 32767 11 32767 32767 32767 51 32767 32767 32767 53 44 
32767 32767 75 32767 32767 32767 32767 32767 33 32767 32767 36 32767 32767 32767 32767 32767 32767 79 69 32767 76 32767 32767 32767 32767 32767 32767 32767 32767 
99 77 32767 82 32767 32767 32767 31 3 32767 28 32767 32767 32767 32767 32767 32767 32767 40 100 32767 32767 71 32767 32767 32767 35 32767 32767 18 
32767 32767 32767 3 17 32767 32767 32767 16 32767 41 32767 4 32767 32767 32767 32767 94 32767 80 72 32767 32767 32767 32767 81 32767 77 32767 32767 
32767 32767 32767 98 32767 32767 32767 32767 39 32767 44 32767 32767 32767 32767 32767 32767 32767 32767 32767 56 92 32767 32767 10 32767 40 28 32767 92 
63 96 32767 32767 49 32767 60 32767 51 79 32767 32767 12 32767 32767 94 32767 32767 32767 32767 19 23 25 32767 3 32767 84 9 32767 32767 
74 4 32767 32767 12 51 32767 32767 94 32767 32767 87 32767 79 40 32767 32767 32767 32767 32767 32767 32767 94 32767 32767 32767 28 32767 72 32767 
32767 32767 32767 33 32767 72 32767 32767 64 24 32767 32767 32767 69 100 80 32767 32767 32767 32767 32767 32767 32767 9 32767 32767 32767 32767 8 21 
34 32767 32767 92 66 32767 32767 80 32767 11 32767 32767 11 32767 32767 72 56 19 32767 32767 32767 32767 32767 75 32767 20 88 32767 32767 32767 
83 8 32767 32767 32 32767 77 7 32767 72 32767 32767 32767 76 32767 32767 92 23 32767 32767 32767 32767 32767 32767 30 23 76 32767 84 33 
53 32767 33 54 35 18 87 68 51 32767 14 32767 32767 32767 71 32767 32767 25 94 32767 32767 32767 32767 32767 69 37 32767 32767 52 38 
32767 32767 31 32767 32767 32767 32767 44 75 32767 32767 32767 32767 32767 32767 32767 32767 32767 32767 9 75 32767 32767 32767 77 32767 32767 69 32767 88 
23 32767 32767 5 32767 32767 86 32767 64 32767 32767 32767 51 32767 32767 32767 10 3 32767 32767 32767 30 69 77 32767 32767 32767 37 32767 32767 
32767 56 32767 32767 44 32767 51 32767 61 64 32767 6 32767 32767 32767 81 32767 32767 32767 32767 20 23 37 32767 32767 32767 90 32767 32767 32767 
32767 32767 32767 73 12 85 96 23 40 32767 53 32767 32767 32767 35 32767 40 84 28 32767 88 76 32767 32767 32767 90 32767 32767 32767 38 
32767 32767 35 32767 93 71 32767 32767 32767 24 54 19 32767 32767 32767 77 28 9 32767 32767 32767 32767 32767 69 37 32767 32767 32767 31 32767 
32767 40 32767 32767 32767 32767 92 32767 32767 88 32767 32767 53 32767 32767 32767 32767 32767 72 8 32767 84 52 32767 32767 32767 32767 31 32767 82 
32767 32767 32767 90 32767 32767 62 69 59 32767 56 68 44 32767 18 32767 92 32767 32767 21 32767 33 38 88 32767 32767 38 32767 82 32767 
EOF